NAME : random172.964.tour
COMMENT : Length = 964
COMMENT : Found by LKH [Keld Helsgaun] Tue Sep  3 17:18:29 2024
TYPE : TOUR
DIMENSION : 172
TOUR_SECTION
1
41
77
92
116
95
84
24
47
62
120
153
14
43
110
124
104
112
46
34
136
115
156
134
147
13
40
172
52
166
36
158
65
64
11
21
125
88
162
31
96
149
70
26
99
148
103
138
117
45
48
55
71
141
111
85
81
76
68
152
140
57
131
63
51
12
56
164
97
58
126
60
135
25
6
133
78
87
3
132
130
143
18
15
32
119
139
146
90
151
59
2
157
72
19
145
35
50
8
101
20
7
127
105
106
23
30
113
44
144
5
53
160
114
4
28
142
123
100
74
167
17
102
163
98
161
61
79
54
16
37
82
170
118
107
155
121
22
128
49
33
69
137
75
29
66
86
168
80
108
93
122
150
73
38
39
154
171
91
109
159
165
67
169
129
42
94
10
83
9
27
89
-1
EOF
